Optimal - objective value 22834.00000000
      5 x_0_5                    1                       0
     10 x_1_3                    1                       0
     20 x_2_6                    1                       0
     21 x_3_0                    1                       0
     32 x_4_4                    1                       0
     37 x_5_2                    1                       0
     43 x_6_1                    1                       0
    232 y_0_5_1_3                1                    1435
    240 y_0_5_2_6                1                     744
    241 y_0_5_3_0                1                     116
    251 y_0_5_4_4                1                    1584
    255 y_0_5_5_2                1                    1206
    260 y_0_5_6_1                1                     352
    396 y_1_3_2_6                1                     819
    397 y_1_3_3_0                1                    1536
    406 y_1_3_4_4                1                     224
    411 y_1_3_5_2                1                    1540
    416 y_1_3_6_1                1                    2736
    655 y_2_6_3_0                1                    2546
    665 y_2_6_4_4                1                    1764
    669 y_2_6_5_2                1                     246
    674 y_2_6_6_1                1                     208
    682 y_3_0_4_4                1                    1023
    686 y_3_0_5_2                1                     663
    691 y_3_0_6_1                1                     158
    855 y_4_4_5_2                1                    2025
    860 y_4_4_6_1                1                    1820
    902 y_5_2_6_1                1                      89
